4 52 23 1 55 51 57 27 89 76 38 61 62 84 94 75 45 92 31 60 39 6 28 37 25 67 32 54 80 59 11 46 40 5 79 12 97 42 96 63 82 14 73 66 41 18 71 13 98 68 81 58 15 64 2 10 22 20 49 93 78 34 91 33 8 30 88 21 19 65 70 87 17 72 26 7 9 29 85 35 36 74 95 90 53 43 0 44 69 99 83 77 56 16 50 86 48 47 24 3 

